37 33 49 59 8 62 61 66 46 26 69 24 9 39 27 13 74 60 0 14 48 40 44 67 18 41 47 50 52 1 21 76 58 63 7 73 15 42 11 68 28 72 51 29 57 30 38 34 25 31 22 64 65 36 35 32 19 43 55 20 70 4 53 2 23 12 5 56 10 75 6 71 3 54 16 17 45 